
P = 1;

n = 10;

m = 10;

w1 = 1.00;

w2 = 5.00;

L = 3.00;

g = 1.26;

t = 
[[76,64,63,63,73,78,66,60,84,78],
[68,68,69,97,97,96,64,83,90,83],
[70,79,72,65,64,90,85,79,94,86],
[89,62,82,84,97,87,95,64,88,71],
[82,88,79,83,86,68,80,82,91,70],
[65,61,81,70,98,85,60,76,64,86],
[62,85,88,76,62,78,64,97,82,84],
[60,96,72,79,79,90,88,91,73,71],
[61,70,73,74,80,63,99,81,79,96],
[99,73,73,88,90,75,66,86,64,80]];
